# Objective value = 1165.4
I_0_0 621
I_0_1 855
I_0_2 765
I_0_3 7.8299999999999989e+02
I_1_0 144
I_1_1 72
I_1_2 0
I_1_3 1.4400000000000011e+02
I_2_0 81
I_2_1 0
I_2_2 81
I_2_3 0
I_3_0 30
I_3_1 15
I_3_2 30
I_3_3 1.5000000000000002e+01
I_4_0 38
I_4_1 19
I_4_2 38
I_4_3 19
I_5_0 94
I_5_1 47
I_5_2 94
I_5_3 4.7000000000000007e+01
q_1_0 0
q_1_1 0
q_1_2 2.1600000000000011e+02
q_2_0 0
q_2_1 162
q_2_2 0
q_3_0 0
q_3_1 30
q_3_2 0
q_4_0 0
q_4_1 38
q_4_2 0
q_5_0 0
q_5_1 94
q_5_2 0
y_0_0 0
y_0_1 1
y_0_2 1.0000000000000009e+00
y_1_0 0
y_1_1 0
y_1_2 1.0000000000000009e+00
y_2_0 0
y_2_1 1
y_2_2 0
y_3_0 0
y_3_1 1
y_3_2 0
y_4_0 0
y_4_1 1
y_4_2 0
y_5_0 0
y_5_1 1
y_5_2 0
x_0_1_0 0
x_0_1_1 0
x_0_1_2 2.0000000000000018e+00
x_0_2_0 0
x_0_2_1 9.9999999999999989e-01
x_0_2_2 0
x_0_3_0 0
x_0_3_1 0
x_0_3_2 0
x_0_4_0 0
x_0_4_1 1
x_0_4_2 0
x_0_5_0 0
x_0_5_1 0
x_0_5_2 0
x_1_2_0 0
x_1_2_1 0
x_1_2_2 0
x_1_3_0 0
x_1_3_1 0
x_1_3_2 0
x_1_4_0 0
x_1_4_1 0
x_1_4_2 0
x_1_5_0 0
x_1_5_1 0
x_1_5_2 0
x_2_3_0 0
x_2_3_1 1
x_2_3_2 0
x_2_4_0 0
x_2_4_1 0
x_2_4_2 0
x_2_5_0 0
x_2_5_1 0
x_2_5_2 0
x_3_4_0 0
x_3_4_1 0
x_3_4_2 0
x_3_5_0 0
x_3_5_1 1
x_3_5_2 0
x_4_5_0 0
x_4_5_1 1
x_4_5_2 0
